-630 -667 0
40 -664 630 0
-664 -665 74 630 0
-665 -666 630 0
-666 630 0
d -665 -666 630 0
-667 0
630 0
-38 0
1 0
75 0
-593 0
-112 0
666 0
-629 0
37 0
33 0
-578 0
-74 0
-614 0
-53 0
-652 0
-89 0
-518 0
-70 0
-550 0
-610 0
-554 0
-592 0
-113 0
-149 0
22 0
32 0
645 0
60 0
31 0
3 0
662 0
18 0
28 0
-353 0
-59 0
-374 0
-599 0
-389 0
-412 0
-427 0
-278 0
-293 0
-314 0
-539 0
-385 0
-503 0
-524 0
-533 0
-69 0
-384 0
-519 0
-534 0
-609 0
-562 0
-577 0
-128 0
-143 0
-164 0
-99 0
-549 0
-535 0
-68 0
-608 0
-97 0
-23 0
-637 0
-488 0
-509 0
-383 0
-547 0
-158 0
-179 0
-548 0
-520 0
-40 0
-490 0
-8 0
-98 0
-142 0
-563 0
-595 0
-580 0
-104 0
-127 0
-355 0
-505 0
-100 0
-85 0
-310 0
-625 0
-175 0
-160 0
-145 0
-295 0
-55 0
-370 0
-323 0
-324 0
-325 0
-329 0
-352 0
-367 0
-338 0
-460 0
-443 0
-445 0
-464 0
-65 0
-95 0
-320 0
-380 0
-470 0
-515 0
-530 0
-545 0
-605 0
-473 0
-474 0
-479 0
-502 0
-517 0
-188 0
-203 0
-220 0
-224 0
-475 0
651 0
16 0
7 0
15 0
232 0
30 0
14 0
17 0
247 0
5 0
6 0
0
